SCIP version 6.0.1 [precision: 8 byte] [memory: block] [mode: optimized] [LP solver: SoPlex 4.0.1] [GitHash: a27ecc0]
Copyright (C) 2002-2019 Konrad-Zuse-Zentrum fuer Informationstechnik Berlin (ZIB)

External codes: 
  Readline 8.0         GNU library for command line editing (gnu.org/s/readline)
  SoPlex 4.0.1         Linear Programming Solver developed at Zuse Institute Berlin (soplex.zib.de) [GitHash: e89d7d5]
  CppAD 20180000.0     Algorithmic Differentiation of C++ algorithms developed by B. Bell (www.coin-or.org/CppAD)
  ZLIB 1.2.11          General purpose compression library by J. Gailly and M. Adler (zlib.net)
  GMP 6.1.2            GNU Multiple Precision Arithmetic Library developed by T. Granlund (gmplib.org)

user parameter file <scip.set> not found - using default parameters


read problem <nu25-pr12.mps>
============

original problem has 5868 variables (5832 bin, 36 int, 0 impl, 0 cont) and 2313 constraints

presolving:
(round 1, fast)       432 del vars, 423 del conss, 0 add conss, 38 chg bounds, 0 chg sides, 0 chg coeffs, 0 upgd conss, 0 impls, 66 clqs
(round 2, fast)       714 del vars, 516 del conss, 0 add conss, 65 chg bounds, 2 chg sides, 0 chg coeffs, 0 upgd conss, 0 impls, 57 clqs
(round 3, fast)       1036 del vars, 601 del conss, 0 add conss, 83 chg bounds, 5 chg sides, 0 chg coeffs, 0 upgd conss, 0 impls, 71 clqs
(round 4, fast)       1105 del vars, 603 del conss, 0 add conss, 84 chg bounds, 7 chg sides, 0 chg coeffs, 0 upgd conss, 0 impls, 87 clqs
(round 5, fast)       1165 del vars, 605 del conss, 0 add conss, 84 chg bounds, 9 chg sides, 0 chg coeffs, 0 upgd conss, 0 impls, 87 clqs
(round 6, fast)       1166 del vars, 605 del conss, 0 add conss, 116 chg bounds, 9 chg sides, 0 chg coeffs, 0 upgd conss, 0 impls, 87 clqs
(round 7, exhaustive) 1167 del vars, 616 del conss, 0 add conss, 116 chg bounds, 9 chg sides, 0 chg coeffs, 0 upgd conss, 0 impls, 87 clqs
(round 8, exhaustive) 1167 del vars, 616 del conss, 0 add conss, 116 chg bounds, 9 chg sides, 0 chg coeffs, 94 upgd conss, 0 impls, 87 clqs
   (0.2s) probing: 1000/4699 (21.3%) - 0 fixings, 0 aggregations, 1122 implications, 0 bound changes
   (0.2s) probing: 1001/4699 (21.3%) - 0 fixings, 0 aggregations, 1123 implications, 0 bound changes
   (0.2s) probing aborted: 1000/1000 successive useless probings
presolving (9 rounds: 9 fast, 3 medium, 3 exhaustive):
 1169 deleted vars, 616 deleted constraints, 0 added constraints, 116 tightened bounds, 0 added holes, 9 changed sides, 0 changed coefficients
 1093 implications, 117 cliques
presolved problem has 4728 variables (4699 bin, 29 int, 0 impl, 0 cont) and 1697 constraints
      7 constraints of type <varbound>
     87 constraints of type <setppc>
   1603 constraints of type <linear>
transformed objective value is always integral (scale: 5)
Presolving Time: 0.23

 time | node  | left  |LP iter|LP it/n| mem |mdpt |frac |vars |cons |cols |rows |cuts |confs|strbr|  dualbound   | primalbound  |  gap   
  0.3s|     1 |     0 |  1707 |     - |  31M|   0 |  41 |4728 |1718 |4728 |1697 |   0 |  21 |   0 | 5.295750e+04 |      --      |    Inf 
F 0.3s|     1 |     0 |  2059 |     - |  33M|   0 |   0 |4728 |1718 |4728 |1697 |   0 |  21 |   0 | 5.295750e+04 | 3.446400e+05 | 550.79%
  0.4s|     1 |     0 |  2060 |     - |  35M|   0 |  35 |4728 |1718 |4728 |1698 |   1 |  21 |   0 | 5.295750e+04 | 3.446400e+05 | 550.79%
b 0.4s|     1 |     0 |  2060 |     - |  35M|   0 |  35 |4728 |1718 |4728 |1698 |   1 |  21 |   0 | 5.295750e+04 | 5.539000e+04 |   4.59%
  0.5s|     1 |     0 |  2089 |     - |  35M|   0 |  56 |4728 |1718 |4728 |1711 |  14 |  21 |   0 | 5.324426e+04 | 5.539000e+04 |   4.03%
  0.5s|     1 |     0 |  2089 |     - |  35M|   0 |  56 |4728 |1718 |4728 |1711 |  14 |  21 |   0 | 5.324426e+04 | 5.539000e+04 |   4.03%
  0.5s|     1 |     0 |  2095 |     - |  36M|   0 |  68 |4728 |1718 |4728 |1717 |  20 |  21 |   0 | 5.325426e+04 | 5.539000e+04 |   4.01%
  0.6s|     1 |     0 |  2125 |     - |  37M|   0 |  53 |4728 |1718 |4728 |1728 |  31 |  21 |   0 | 5.346885e+04 | 5.539000e+04 |   3.59%
  0.6s|     1 |     0 |  2125 |     - |  37M|   0 |  53 |4728 |1718 |4728 |1728 |  31 |  21 |   0 | 5.346885e+04 | 5.539000e+04 |   3.59%
  0.7s|     1 |     0 |  2132 |     - |  38M|   0 |  62 |4728 |1718 |4728 |1734 |  37 |  21 |   0 | 5.346885e+04 | 5.539000e+04 |   3.59%
  0.7s|     1 |     0 |  2165 |     - |  38M|   0 |  67 |4728 |1718 |4728 |1750 |  53 |  21 |   0 | 5.359467e+04 | 5.539000e+04 |   3.35%
  0.7s|     1 |     0 |  2165 |     - |  38M|   0 |  67 |4728 |1718 |4728 |1750 |  53 |  21 |   0 | 5.359467e+04 | 5.539000e+04 |   3.35%
  0.8s|     1 |     0 |  2192 |     - |  40M|   0 |  69 |4728 |1718 |4728 |1756 |  59 |  21 |   0 | 5.361533e+04 | 5.539000e+04 |   3.31%
R 0.8s|     1 |     0 |  2192 |     - |  40M|   0 |  69 |4728 |1719 |4728 |1756 |  59 |  22 |   0 | 5.361533e+04 | 5.472000e+04 |   2.06%
  0.8s|     1 |     0 |  2222 |     - |  40M|   0 |  89 |4728 |1719 |4728 |1761 |  64 |  22 |   0 | 5.362721e+04 | 5.472000e+04 |   2.04%
 time | node  | left  |LP iter|LP it/n| mem |mdpt |frac |vars |cons |cols |rows |cuts |confs|strbr|  dualbound   | primalbound  |  gap   
b 0.8s|     1 |     0 |  2222 |     - |  41M|   0 |  89 |4728 |1719 |4728 |1761 |  64 |  22 |   0 | 5.362721e+04 | 5.447000e+04 |   1.57%
  0.9s|     1 |     0 |  2230 |     - |  41M|   0 |  74 |4728 |1719 |4728 |1761 |  64 |  22 |   0 | 5.362721e+04 | 5.447000e+04 |   1.57%
  0.9s|     1 |     0 |  2230 |     - |  41M|   0 |  74 |4728 |1719 |4728 |1761 |  64 |  22 |   0 | 5.362721e+04 | 5.447000e+04 |   1.57%
  0.9s|     1 |     0 |  2238 |     - |  41M|   0 |  89 |4728 |1719 |4728 |1767 |  70 |  22 |   0 | 5.362721e+04 | 5.447000e+04 |   1.57%
  1.0s|     1 |     0 |  2268 |     - |  42M|   0 |  93 |4728 |1723 |4728 |1771 |  74 |  26 |   0 | 5.363536e+04 | 5.447000e+04 |   1.56%
  1.0s|     1 |     0 |  2272 |     - |  44M|   0 |  88 |4728 |1724 |4728 |1773 |  76 |  27 |   0 | 5.363536e+04 | 5.447000e+04 |   1.56%
  1.1s|     1 |     0 |  2298 |     - |  44M|   0 |  70 |4728 |1724 |4728 |1780 |  83 |  27 |   0 | 5.363781e+04 | 5.447000e+04 |   1.55%
  1.2s|     1 |     0 |  2321 |     - |  45M|   0 |  73 |4728 |1724 |4728 |1786 |  89 |  27 |   0 | 5.363808e+04 | 5.447000e+04 |   1.55%
  1.2s|     1 |     0 |  2363 |     - |  45M|   0 |  32 |4728 |1724 |4728 |1791 |  94 |  27 |   0 | 5.364333e+04 | 5.447000e+04 |   1.54%
  1.3s|     1 |     0 |  2377 |     - |  45M|   0 |  39 |4728 |1725 |4728 |1796 |  99 |  28 |   0 | 5.368500e+04 | 5.447000e+04 |   1.46%
R 1.3s|     1 |     0 |  2377 |     - |  45M|   0 |  39 |4728 |1726 |4728 |1796 |  99 |  29 |   0 | 5.368500e+04 | 5.444500e+04 |   1.42%
  1.3s|     1 |     0 |  2380 |     - |  45M|   0 |  27 |4728 |1726 |4728 |1774 | 102 |  29 |   0 | 5.371667e+04 | 5.444500e+04 |   1.36%
R 1.3s|     1 |     0 |  2380 |     - |  45M|   0 |  27 |4728 |1726 |4728 |1774 | 102 |  29 |   0 | 5.371667e+04 | 5.416000e+04 |   0.83%
  1.3s|     1 |     0 |  2384 |     - |  45M|   0 |  30 |4728 |1726 |4728 |1776 | 104 |  29 |   0 | 5.371667e+04 | 5.416000e+04 |   0.83%
  1.4s|     1 |     0 |  2384 |     - |  45M|   0 |  30 |4728 |1726 |4728 |1776 | 104 |  29 |   0 | 5.371667e+04 | 5.416000e+04 |   0.83%
 time | node  | left  |LP iter|LP it/n| mem |mdpt |frac |vars |cons |cols |rows |cuts |confs|strbr|  dualbound   | primalbound  |  gap   
  1.4s|     1 |     0 |  2385 |     - |  46M|   0 |  27 |4728 |1726 |4728 |1777 | 105 |  29 |   0 | 5.371667e+04 | 5.416000e+04 |   0.83%
  1.4s|     1 |     0 |  2386 |     - |  46M|   0 |  16 |4728 |1726 |4728 |1778 | 106 |  29 |   0 | 5.372000e+04 | 5.416000e+04 |   0.82%
R 1.4s|     1 |     0 |  2386 |     - |  46M|   0 |  16 |4728 |1726 |4728 |1778 | 106 |  29 |   0 | 5.372000e+04 | 5.393000e+04 |   0.39%
  1.5s|     1 |     0 |  2393 |     - |  46M|   0 |  13 |4728 |1726 |4728 |1780 | 108 |  29 |   0 | 5.372000e+04 | 5.393000e+04 |   0.39%
R 1.5s|     1 |     0 |  2393 |     - |  46M|   0 |  13 |4728 |1726 |4728 |1780 | 108 |  29 |   0 | 5.372000e+04 | 5.392000e+04 |   0.37%
  1.5s|     1 |     0 |  2393 |     - |  46M|   0 |  13 |4728 |1726 |4728 |1780 | 108 |  29 |   0 | 5.372000e+04 | 5.392000e+04 |   0.37%
  1.5s|     1 |     0 |  2393 |     - |  46M|   0 |  13 |4728 |1726 |4728 |1780 | 108 |  29 |   0 | 5.372000e+04 | 5.392000e+04 |   0.37%
  1.5s|     1 |     0 |  2394 |     - |  46M|   0 |  13 |4728 |1726 |4728 |1781 | 109 |  29 |   0 | 5.372000e+04 | 5.392000e+04 |   0.37%
  1.5s|     1 |     0 |  2395 |     - |  46M|   0 |  16 |4728 |1726 |4728 |1761 | 110 |  29 |   0 | 5.372000e+04 | 5.392000e+04 |   0.37%
  1.6s|     1 |     0 |  2395 |     - |  47M|   0 |  16 |4728 |1660 |4728 |1761 | 110 |  29 |   0 | 5.372000e+04 | 5.392000e+04 |   0.37%
E 1.7s|     1 |     0 |  2548 |     - |  47M|   0 |  16 |4728 |1662 |4728 |1761 | 110 |  30 |   0 | 5.372000e+04 | 5.391500e+04 |   0.36%
(run 1, node 1) restarting after 751 global fixings of integer variables

(restart) converted 64 cuts from the global cut pool into linear constraints

presolving:
(round 1, fast)       833 del vars, 80 del conss, 0 add conss, 2 chg bounds, 0 chg sides, 9 chg coeffs, 0 upgd conss, 1110 impls, 194 clqs
(round 2, fast)       841 del vars, 90 del conss, 0 add conss, 3 chg bounds, 1 chg sides, 9 chg coeffs, 0 upgd conss, 1111 impls, 195 clqs
(round 3, fast)       847 del vars, 90 del conss, 0 add conss, 14 chg bounds, 1 chg sides, 9 chg coeffs, 0 upgd conss, 1111 impls, 195 clqs
(round 4, medium)     852 del vars, 90 del conss, 0 add conss, 14 chg bounds, 1 chg sides, 9 chg coeffs, 0 upgd conss, 1111 impls, 184 clqs
(round 5, fast)       867 del vars, 105 del conss, 0 add conss, 17 chg bounds, 1 chg sides, 9 chg coeffs, 0 upgd conss, 1111 impls, 182 clqs
(round 6, fast)       871 del vars, 105 del conss, 0 add conss, 18 chg bounds, 1 chg sides, 9 chg coeffs, 0 upgd conss, 1111 impls, 182 clqs
(round 7, exhaustive) 871 del vars, 106 del conss, 0 add conss, 18 chg bounds, 1 chg sides, 9 chg coeffs, 89 upgd conss, 1111 impls, 182 clqs
presolving (8 rounds: 8 fast, 3 medium, 2 exhaustive):
 871 deleted vars, 107 deleted constraints, 0 added constraints, 18 tightened bounds, 0 added holes, 1 changed sides, 9 changed coefficients
 1112 implications, 182 cliques
presolved problem has 3862 variables (3834 bin, 28 int, 0 impl, 0 cont) and 1619 constraints
     10 constraints of type <varbound>
    158 constraints of type <setppc>
   1428 constraints of type <linear>
     18 constraints of type <logicor>
      5 constraints of type <bounddisjunction>
transformed objective value is always integral (scale: 5)
Presolving Time: 0.26
transformed 16/17 original solutions to the transformed problem space

 time | node  | left  |LP iter|LP it/n| mem |mdpt |frac |vars |cons |cols |rows |cuts |confs|strbr|  dualbound   | primalbound  |  gap   
  1.8s|     1 |     0 |  4179 |     - |  52M|   0 |  18 |3862 |1619 |3862 |1593 |   0 |  30 |   0 | 5.372000e+04 | 5.391500e+04 |   0.36%
  1.8s|     1 |     0 |  4179 |     - |  52M|   0 |  18 |3862 |1619 |3862 |1592 |   0 |  30 |   0 | 5.372000e+04 | 5.391500e+04 |   0.36%
  1.9s|     1 |     0 |  4226 |     - |  53M|   0 |  77 |3862 |1618 |3862 |1600 |   9 |  30 |   0 | 5.372387e+04 | 5.391500e+04 |   0.36%
  1.9s|     1 |     0 |  4226 |     - |  53M|   0 |  77 |3862 |1618 |3862 |1600 |   9 |  30 |   0 | 5.372387e+04 | 5.391500e+04 |   0.36%
  1.9s|     1 |     0 |  4236 |     - |  53M|   0 |  88 |3862 |1617 |3862 |1608 |  17 |  30 |   0 | 5.372387e+04 | 5.391500e+04 |   0.36%
  1.9s|     1 |     0 |  4247 |     - |  53M|   0 | 100 |3862 |1617 |3862 |1612 |  21 |  30 |   0 | 5.372387e+04 | 5.391500e+04 |   0.36%
  2.0s|     1 |     0 |  4269 |     - |  54M|   0 |  97 |3862 |1617 |3862 |1615 |  24 |  30 |   0 | 5.372387e+04 | 5.391500e+04 |   0.36%
  2.0s|     1 |     0 |  4274 |     - |  54M|   0 |  88 |3862 |1617 |3862 |1618 |  27 |  30 |   0 | 5.372387e+04 | 5.391500e+04 |   0.36%
  2.1s|     1 |     0 |  4291 |     - |  54M|   0 |  94 |3862 |1617 |3862 |1620 |  29 |  30 |   0 | 5.372387e+04 | 5.391500e+04 |   0.36%
  2.1s|     1 |     0 |  4295 |     - |  54M|   0 | 106 |3862 |1617 |3862 |1624 |  33 |  30 |   0 | 5.372387e+04 | 5.391500e+04 |   0.36%
  2.2s|     1 |     0 |  4297 |     - |  55M|   0 | 104 |3862 |1619 |3862 |1626 |  35 |  32 |   0 | 5.372387e+04 | 5.391500e+04 |   0.36%
  2.2s|     1 |     0 |  4298 |     - |  55M|   0 |  86 |3862 |1619 |3862 |1627 |  36 |  32 |   0 | 5.372387e+04 | 5.391500e+04 |   0.36%
  2.3s|     1 |     0 |  4300 |     - |  55M|   0 |  83 |3862 |1619 |3862 |1595 |  37 |  32 |   0 | 5.372387e+04 | 5.391500e+04 |   0.36%
  2.3s|     1 |     0 |  4300 |     - |  55M|   0 |  83 |3862 |1604 |3862 |1595 |  37 |  32 |   0 | 5.372387e+04 | 5.391500e+04 |   0.36%
  2.3s|     1 |     0 |  4305 |     - |  55M|   0 |  10 |3862 |1604 |3862 |1596 |  38 |  32 |   0 | 5.372400e+04 | 5.391500e+04 |   0.36%
 time | node  | left  |LP iter|LP it/n| mem |mdpt |frac |vars |cons |cols |rows |cuts |confs|strbr|  dualbound   | primalbound  |  gap   
  2.3s|     1 |     0 |  4306 |     - |  55M|   0 |  16 |3862 |1604 |3862 |1597 |  39 |  32 |   0 | 5.372400e+04 | 5.391500e+04 |   0.36%
  2.3s|     1 |     0 |  4308 |     - |  55M|   0 |  22 |3862 |1604 |3862 |1598 |  40 |  32 |   0 | 5.372400e+04 | 5.391500e+04 |   0.36%
  2.4s|     1 |     0 |  4312 |     - |  56M|   0 |  16 |3862 |1604 |3862 |1599 |  41 |  32 |   0 | 5.372400e+04 | 5.391500e+04 |   0.36%
  2.4s|     1 |     0 |  4313 |     - |  56M|   0 |  22 |3862 |1604 |3862 |1600 |  42 |  32 |   0 | 5.372400e+04 | 5.391500e+04 |   0.36%
  2.4s|     1 |     0 |  4318 |     - |  56M|   0 |  16 |3862 |1604 |3862 |1586 |  44 |  32 |   0 | 5.372400e+04 | 5.391500e+04 |   0.36%
  2.4s|     1 |     0 |  4320 |     - |  56M|   0 |  22 |3862 |1604 |3862 |1587 |  45 |  32 |   0 | 5.372400e+04 | 5.391500e+04 |   0.36%
  2.5s|     1 |     0 |  4323 |     - |  56M|   0 |  16 |3862 |1604 |3862 |1588 |  46 |  32 |   0 | 5.372400e+04 | 5.391500e+04 |   0.36%
  2.5s|     1 |     0 |  4324 |     - |  56M|   0 |  22 |3862 |1604 |3862 |1589 |  47 |  32 |   0 | 5.372400e+04 | 5.391500e+04 |   0.36%
  2.5s|     1 |     0 |  4329 |     - |  56M|   0 |  16 |3862 |1604 |3862 |1590 |  48 |  32 |   0 | 5.372400e+04 | 5.391500e+04 |   0.36%
  2.5s|     1 |     0 |  4333 |     - |  56M|   0 |  22 |3862 |1604 |3862 |1591 |  49 |  32 |   0 | 5.372400e+04 | 5.391500e+04 |   0.36%
  2.7s|     1 |     2 |  4613 |     - |  58M|   0 |  10 |3862 |1604 |3862 |1591 |  49 |  32 |   9 | 5.372500e+04 | 5.391500e+04 |   0.35%
* 5.6s|    72 |     5 |  6984 |  38.9 |  63M|   9 |   - |3862 |1849 |3862 |1562 |  49 | 271 | 464 | 5.379763e+04 | 5.391000e+04 |   0.21%
* 5.8s|    80 |     5 |  7084 |  36.3 |  63M|   9 |   - |3862 |1860 |3862 |1562 |  49 | 282 | 501 | 5.382268e+04 | 5.390500e+04 |   0.15%

SCIP Status        : problem is solved [optimal solution found]
Solving Time (sec) : 5.84
Solving Nodes      : 84 (total of 85 nodes in 2 runs)
Primal Bound       : +5.39050000000000e+04 (56 solutions)
Dual Bound         : +5.39050000000000e+04
Gap                : 0.00 %


